; sanic :: corpus-study/repo_src/sanic/sanic/server/websockets/frame.py :: wait_for at get:121 :: naive encoding (verdict: unsat)
; Generated by snf-pipeline (encoder.py) -- run with any
; SMT-LIB2-compliant solver, e.g. `z3 sanic__corpus-study_repo_src_sanic_sanic_server_websockets_frame.py__waitfor_get_L121__naive.smt2`
; benchmark generated from python API
(set-info :status unknown)
(declare-fun timeout_fires () Bool)
(declare-fun cleanup_ran () Bool)
(assert
 (= timeout_fires false))
(assert
 (let (($x59 (not cleanup_ran)))
(and timeout_fires $x59)))
(check-sat)
